Nb of jobs, Nb of Machines, Time seed, Machine seed, Upper bound, Lower bound
3,8,-1,-1,-1,-1
Times
90,34,94,32,44,37,4,89
68,40,50,66,58,11,78,40
79,41,91,57,57,66,83,55
Machines
5,7,1,8,6,3,4,2
1,5,4,7,8,6,3,2
7,2,5,1,8,6,4,3
